Maximize
  - 2.31673357795 edge_0_1_0_0 - 3.5745722878645 edge_0_2_0_0
   - 3.3224134418784 edge_0_4_0_0 - 4.5713294047811 edge_0_5_0_0
   - 3.0903955204232 edge_0_6_0_0 - 3.1727784510444 edge_0_7_0_0
   - 3.074265054834 edge_0_8_0_0 - 3.13418448571 edge_0_9_0_0
   - 4.643200102401599 edge_0_10_0_0 - 2.3488383291588 edge_0_12_0_0
   - 2.6263690636756 edge_0_13_0_0 - 2.9532671943935 edge_0_16_0_0
   - 2.92186 edge_0_17_0_0 + 2.102566536906822 edge_1_2_0_0
   + 0.5771590575500208 edge_1_4_0_0 - 0.0915731503035606 edge_1_5_0_0
   + 0.5973192722374959 edge_1_6_0_0 + 0.6360007570405821 edge_1_7_0_0
   - 0.1215253339123513 edge_1_8_0_0 + 0.0570340013407403 edge_1_9_0_0
   - 0.0902368348620678 edge_1_10_0_0 + 0.1138588189259424 edge_1_11_0_0
   + 0.1585279505763165 edge_1_12_0_0 - 0.4712743567658912 edge_1_13_0_0
   - 0.6569345006314735 edge_1_14_0_0 + 0.2642332295260679 edge_1_15_0_0
   + 0.435953684668077 edge_1_16_0_0 - 0.8797689691356589 edge_1_17_0_0
   + 1.83801972297619 edge_2_1_0_0 + 2.966997816415199 edge_2_4_0_0
   - 0.2481517834110679 edge_2_5_0_0 + 1.718859384207381 edge_2_6_0_0
   + 2.404645877683144 edge_2_7_0_0 + 1.5912453353981 edge_2_9_0_0
   + 0.9944866711539292 edge_2_10_0_0 + 1.575098261290029 edge_2_12_0_0
   + 1.065217704793452 edge_2_13_0_0 - 0.6803520700543378 edge_2_14_0_0
   + 1.640971462585624 edge_2_15_0_0 + 1.953417535459578 edge_2_16_0_0
   + 1.283266461396 edge_2_17_0_0 + 0.2669709586703511 edge_2_18_0_0
   + 2.960461983512778 edge_4_1_0_0 + 3.0278872900833 edge_4_2_0_0
   + 1.920677838069975 edge_4_5_0_0 + 3.037470992298513 edge_4_6_0_0
   + 1.85186156968485 edge_4_7_0_0 + 1.925917309005823 edge_4_8_0_0
   + 1.986791232070454 edge_4_9_0_0 + 2.140237548032678 edge_4_10_0_0
   + 0.3336898757987811 edge_4_11_0_0 + 0.6818343769973323 edge_4_12_0_0
   + 1.951486156146177 edge_4_13_0_0 + 1.762802324537435 edge_4_14_0_0
   + 2.44354951906974 edge_4_15_0_0 + 0.6768554995452045 edge_4_16_0_0
   + 1.681417006416706 edge_4_17_0_0 + 0.2213506153167792 edge_4_18_0_0
   - 1.139909441921442 edge_5_4_0_0 - 0.2703856821467009 edge_5_7_0_0
   - 0.1720300048499418 edge_5_9_0_0 - 1.012814522059262 edge_6_2_0_0
   - 0.5646456665558531 edge_6_4_0_0 - 0.1251621208556218 edge_6_7_0_0
   - 0.6027904733100617 edge_6_8_0_0 - 0.474657031863702 edge_6_9_0_0
   - 0.0783818838443726 edge_6_10_0_0 - 0.2971536621727149 edge_6_15_0_0
   - 0.5929375025346441 edge_7_1_0_0 - 0.1926712659633391 edge_7_2_0_0
   - 0.1685479514780634 edge_7_4_0_0 - 0.0188446565363551 edge_7_5_0_0
   + 0.620048327359873 edge_7_6_0_0 + 0.2402745574313289 edge_7_8_0_0
   + 2.938764755846851 edge_7_9_0_0 + 0.6504206737028299 edge_7_10_0_0
   + 0.1744563709187358 edge_7_11_0_0 + 1.071825808875854 edge_7_12_0_0
   + 0.9511254027149322 edge_7_13_0_0 - 0.7559875946622731 edge_7_14_0_0
   + 1.160889842355092 edge_7_15_0_0 + 1.038295234206591 edge_7_16_0_0
   + 1.0091763265848 edge_7_17_0_0 + 0.0712151424749618 edge_7_18_0_0
   + 0.7505045890059251 edge_8_1_0_0 + 0.3369127881119457 edge_8_4_0_0
   + 0.4515588973425307 edge_8_6_0_0 + 2.123216031979281 edge_8_7_0_0
   + 1.995103671239647 edge_8_9_0_0 + 0.9900735773062582 edge_8_10_0_0
   + 0.3382699100126861 edge_8_11_0_0 + 1.005127153383759 edge_8_13_0_0
   + 0.9735028765398559 edge_8_15_0_0 - 0.2802949182435323 edge_8_16_0_0
   + 0.6943761225965283 edge_8_17_0_0 + 0.7247605039655839 edge_9_1_0_0
   + 0.4522580836537884 edge_9_2_0_0 + 0.1392714876393885 edge_9_4_0_0
   + 0.7791522926154841 edge_9_5_0_0 + 0.1157027248191571 edge_9_6_0_0
   + 2.891858292724953 edge_9_7_0_0 + 0.6066324154692179 edge_9_8_0_0
   + 1.833726933469373 edge_9_10_0_0 + 0.1049100294623111 edge_9_11_0_0
   + 1.347060400050013 edge_9_12_0_0 + 1.896866995702746 edge_9_13_0_0
   + 1.818268449755596 edge_9_14_0_0 + 2.117641606306361 edge_9_15_0_0
   + 1.556460816834319 edge_9_16_0_0 + 1.6167036958029 edge_9_17_0_0
   + 0.4126173040149549 edge_9_18_0_0 - 1.914103859547235 edge_10_2_0_0
   - 2.191014427353401 edge_10_4_0_0 - 0.9494425394364644 edge_10_6_0_0
   - 1.470219828749344 edge_10_7_0_0 - 1.147729705407384 edge_10_8_0_0
   - 0.9085933306186305 edge_10_9_0_0 - 0.1018998266432924 edge_10_11_0_0
   - 0.2489310119101439 edge_10_12_0_0 - 0.3283032391304091 edge_10_13_0_0
   - 0.4709483999759185 edge_10_14_0_0 - 0.8660115298589961 edge_10_15_0_0
   - 1.220551829796244 edge_10_18_0_0 - 0.7094398419662993 edge_11_4_0_0
   - 0.5339658260061677 edge_11_6_0_0 - 0.2455250040693224 edge_11_7_0_0
   - 0.3259566973300695 edge_11_8_0_0 + 0.00153115317197288 edge_11_9_0_0
   + 0.180728900223182 edge_11_10_0_0 + 0.1157604157283297 edge_11_13_0_0
   + 0.4057333141828948 edge_11_15_0_0 + 0.2576875123549178 edge_11_16_0_0
   - 0.4364869997312488 edge_11_17_0_0 - 0.524783006199493 edge_12_1_0_0
   - 0.4233521868655107 edge_12_2_0_0 - 0.1547487278602917 edge_12_4_0_0
   - 0.6587407596409395 edge_12_5_0_0 - 0.4527929219195798 edge_12_6_0_0
   - 0.0651910368615221 edge_12_7_0_0 + 0.0474359172310955 edge_12_9_0_0
   + 0.7089685777014147 edge_12_10_0_0 + 2.673508736499337 edge_12_13_0_0
   - 0.3789411356362599 edge_12_14_0_0 + 1.224586083731137 edge_12_15_0_0
   + 1.331955947728648 edge_12_16_0_0 + 1.239508100608 edge_12_17_0_0
   + 0.6402887617871972 edge_12_18_0_0 + 1.365292542754928 edge_13_1_0_0
   + 0.8871598325574966 edge_13_2_0_0 + 0.0948617884437555 edge_13_4_0_0
   + 0.3508425922713996 edge_13_5_0_0 - 0.2873990699121232 edge_13_6_0_0
   + 1.07168751668842 edge_13_7_0_0 + 0.1143658839623099 edge_13_8_0_0
   + 1.084051133497791 edge_13_9_0_0 + 1.26851411995912 edge_13_10_0_0
   + 1.336134246165875 edge_13_11_0_0 + 1.578309937949093 edge_13_12_0_0
   + 1.930595983204169 edge_13_14_0_0 + 2.049233254714198 edge_13_15_0_0
   + 1.758674152045568 edge_13_16_0_0 + 1.754983883398221 edge_13_17_0_0
   + 0.207772619918557 edge_13_18_0_0 - 1.142443096703376 edge_14_13_0_0
   - 0.2697964366601948 edge_14_16_0_0 - 0.26437806773685 edge_14_17_0_0
   - 0.6257738171118039 edge_15_6_0_0 - 0.6405910788905801 edge_15_10_0_0
   - 1.000000359982283 edge_15_12_0_0 - 0.5253305318485006 edge_15_13_0_0
   - 0.1250454976820144 edge_15_16_0_0 - 0.47421582913301 edge_15_17_0_0
   - 0.1113987462538937 edge_15_18_0_0 - 1.010858375005131 edge_16_2_0_0
   - 1.539332079163038 edge_16_4_0_0 - 1.627608532872294 edge_16_5_0_0
   - 0.7843004000473521 edge_16_7_0_0 - 0.9196565739985246 edge_16_9_0_0
   - 0.9460073614935527 edge_16_10_0_0 - 0.0684002741343316 edge_16_12_0_0
   - 0.1569593936133944 edge_16_13_0_0 + 0.0229676318481694 edge_16_14_0_0
   + 0.6194705806483893 edge_16_15_0_0 + 2.9387872081495 edge_16_17_0_0
   - 0.0151872417001947 edge_16_18_0_0 + 0.6882083466755796 edge_17_1_0_0
   - 0.35309319351984 edge_17_2_0_0 - 0.6212627448145718 edge_17_4_0_0
   - 0.79698342019114 edge_17_5_0_0 - 0.8069766704448014 edge_17_6_0_0
   + 0.9596893778257261 edge_17_7_0_0 - 0.1743969532562538 edge_17_8_0_0
   + 0.1147411351409949 edge_17_9_0_0 - 0.19136059555777 edge_17_10_0_0
   + 0.8755817515228995 edge_17_11_0_0 + 0.3876760959042599 edge_17_12_0_0
   + 0.1925258316653589 edge_17_13_0_0 + 0.54656031601035 edge_17_14_0_0
   + 0.4842499212927528 edge_17_15_0_0 + 2.85884222187933 edge_17_16_0_0
   - 0.21221015258728 edge_17_18_0_0 - 1.567368767545456 edge_18_16_0_0
   - 1.1646968519936 edge_18_17_0_0
Subject To
 one_parent_1: edge_0_1_0_0 + edge_2_1_0_0 + edge_4_1_0_0 + edge_7_1_0_0
   + edge_8_1_0_0 + edge_9_1_0_0 + edge_12_1_0_0 + edge_13_1_0_0
   + edge_17_1_0_0 = 1
 consume_one_flow_unit_1: flow_0_1_0_0 - flow_1_2_0_0 - flow_1_4_0_0
   - flow_1_5_0_0 - flow_1_6_0_0 - flow_1_7_0_0 - flow_1_8_0_0
   - flow_1_9_0_0 - flow_1_10_0_0 - flow_1_11_0_0 - flow_1_12_0_0
   - flow_1_13_0_0 - flow_1_14_0_0 - flow_1_15_0_0 - flow_1_16_0_0
   - flow_1_17_0_0 + flow_2_1_0_0 + flow_4_1_0_0 + flow_7_1_0_0
   + flow_8_1_0_0 + flow_9_1_0_0 + flow_12_1_0_0 + flow_13_1_0_0
   + flow_17_1_0_0 = 1
 one_parent_2: edge_0_2_0_0 + edge_1_2_0_0 + edge_4_2_0_0 + edge_6_2_0_0
   + edge_7_2_0_0 + edge_9_2_0_0 + edge_10_2_0_0 + edge_12_2_0_0
   + edge_13_2_0_0 + edge_16_2_0_0 + edge_17_2_0_0 = 1
 consume_one_flow_unit_2: flow_0_2_0_0 + flow_1_2_0_0 - flow_2_1_0_0
   - flow_2_4_0_0 - flow_2_5_0_0 - flow_2_6_0_0 - flow_2_7_0_0
   - flow_2_9_0_0 - flow_2_10_0_0 - flow_2_12_0_0 - flow_2_13_0_0
   - flow_2_14_0_0 - flow_2_15_0_0 - flow_2_16_0_0 - flow_2_17_0_0
   - flow_2_18_0_0 + flow_4_2_0_0 + flow_6_2_0_0 + flow_7_2_0_0
   + flow_9_2_0_0 + flow_10_2_0_0 + flow_12_2_0_0 + flow_13_2_0_0
   + flow_16_2_0_0 + flow_17_2_0_0 = 1
 one_parent_3: = 1
 consume_one_flow_unit_3: = 1
 one_parent_4: edge_0_4_0_0 + edge_1_4_0_0 + edge_2_4_0_0 + edge_5_4_0_0
   + edge_6_4_0_0 + edge_7_4_0_0 + edge_8_4_0_0 + edge_9_4_0_0
   + edge_10_4_0_0 + edge_11_4_0_0 + edge_12_4_0_0 + edge_13_4_0_0
   + edge_16_4_0_0 + edge_17_4_0_0 = 1
 consume_one_flow_unit_4: flow_0_4_0_0 + flow_1_4_0_0 + flow_2_4_0_0
   - flow_4_1_0_0 - flow_4_2_0_0 - flow_4_5_0_0 - flow_4_6_0_0
   - flow_4_7_0_0 - flow_4_8_0_0 - flow_4_9_0_0 - flow_4_10_0_0
   - flow_4_11_0_0 - flow_4_12_0_0 - flow_4_13_0_0 - flow_4_14_0_0
   - flow_4_15_0_0 - flow_4_16_0_0 - flow_4_17_0_0 - flow_4_18_0_0
   + flow_5_4_0_0 + flow_6_4_0_0 + flow_7_4_0_0 + flow_8_4_0_0
   + flow_9_4_0_0 + flow_10_4_0_0 + flow_11_4_0_0 + flow_12_4_0_0
   + flow_13_4_0_0 + flow_16_4_0_0 + flow_17_4_0_0 = 1
 one_parent_5: edge_0_5_0_0 + edge_1_5_0_0 + edge_2_5_0_0 + edge_4_5_0_0
   + edge_7_5_0_0 + edge_9_5_0_0 + edge_12_5_0_0 + edge_13_5_0_0
   + edge_16_5_0_0 + edge_17_5_0_0 = 1
 consume_one_flow_unit_5: flow_0_5_0_0 + flow_1_5_0_0 + flow_2_5_0_0
   + flow_4_5_0_0 - flow_5_4_0_0 - flow_5_7_0_0 - flow_5_9_0_0
   + flow_7_5_0_0 + flow_9_5_0_0 + flow_12_5_0_0 + flow_13_5_0_0
   + flow_16_5_0_0 + flow_17_5_0_0 = 1
 one_parent_6: edge_0_6_0_0 + edge_1_6_0_0 + edge_2_6_0_0 + edge_4_6_0_0
   + edge_7_6_0_0 + edge_8_6_0_0 + edge_9_6_0_0 + edge_10_6_0_0
   + edge_11_6_0_0 + edge_12_6_0_0 + edge_13_6_0_0 + edge_15_6_0_0
   + edge_17_6_0_0 = 1
 consume_one_flow_unit_6: flow_0_6_0_0 + flow_1_6_0_0 + flow_2_6_0_0
   + flow_4_6_0_0 - flow_6_2_0_0 - flow_6_4_0_0 - flow_6_7_0_0
   - flow_6_8_0_0 - flow_6_9_0_0 - flow_6_10_0_0 - flow_6_15_0_0
   + flow_7_6_0_0 + flow_8_6_0_0 + flow_9_6_0_0 + flow_10_6_0_0
   + flow_11_6_0_0 + flow_12_6_0_0 + flow_13_6_0_0 + flow_15_6_0_0
   + flow_17_6_0_0 = 1
 one_parent_7: edge_0_7_0_0 + edge_1_7_0_0 + edge_2_7_0_0 + edge_4_7_0_0
   + edge_5_7_0_0 + edge_6_7_0_0 + edge_8_7_0_0 + edge_9_7_0_0
   + edge_10_7_0_0 + edge_11_7_0_0 + edge_12_7_0_0 + edge_13_7_0_0
   + edge_16_7_0_0 + edge_17_7_0_0 = 1
 consume_one_flow_unit_7: flow_0_7_0_0 + flow_1_7_0_0 + flow_2_7_0_0
   + flow_4_7_0_0 + flow_5_7_0_0 + flow_6_7_0_0 - flow_7_1_0_0
   - flow_7_2_0_0 - flow_7_4_0_0 - flow_7_5_0_0 - flow_7_6_0_0
   - flow_7_8_0_0 - flow_7_9_0_0 - flow_7_10_0_0 - flow_7_11_0_0
   - flow_7_12_0_0 - flow_7_13_0_0 - flow_7_14_0_0 - flow_7_15_0_0
   - flow_7_16_0_0 - flow_7_17_0_0 - flow_7_18_0_0 + flow_8_7_0_0
   + flow_9_7_0_0 + flow_10_7_0_0 + flow_11_7_0_0 + flow_12_7_0_0
   + flow_13_7_0_0 + flow_16_7_0_0 + flow_17_7_0_0 = 1
 one_parent_8: edge_0_8_0_0 + edge_1_8_0_0 + edge_4_8_0_0 + edge_6_8_0_0
   + edge_7_8_0_0 + edge_9_8_0_0 + edge_10_8_0_0 + edge_11_8_0_0
   + edge_13_8_0_0 + edge_17_8_0_0 = 1
 consume_one_flow_unit_8: flow_0_8_0_0 + flow_1_8_0_0 + flow_4_8_0_0
   + flow_6_8_0_0 + flow_7_8_0_0 - flow_8_1_0_0 - flow_8_4_0_0
   - flow_8_6_0_0 - flow_8_7_0_0 - flow_8_9_0_0 - flow_8_10_0_0
   - flow_8_11_0_0 - flow_8_13_0_0 - flow_8_15_0_0 - flow_8_16_0_0
   - flow_8_17_0_0 + flow_9_8_0_0 + flow_10_8_0_0 + flow_11_8_0_0
   + flow_13_8_0_0 + flow_17_8_0_0 = 1
 one_parent_9: edge_0_9_0_0 + edge_1_9_0_0 + edge_2_9_0_0 + edge_4_9_0_0
   + edge_5_9_0_0 + edge_6_9_0_0 + edge_7_9_0_0 + edge_8_9_0_0
   + edge_10_9_0_0 + edge_11_9_0_0 + edge_12_9_0_0 + edge_13_9_0_0
   + edge_16_9_0_0 + edge_17_9_0_0 = 1
 consume_one_flow_unit_9: flow_0_9_0_0 + flow_1_9_0_0 + flow_2_9_0_0
   + flow_4_9_0_0 + flow_5_9_0_0 + flow_6_9_0_0 + flow_7_9_0_0
   + flow_8_9_0_0 - flow_9_1_0_0 - flow_9_2_0_0 - flow_9_4_0_0
   - flow_9_5_0_0 - flow_9_6_0_0 - flow_9_7_0_0 - flow_9_8_0_0
   - flow_9_10_0_0 - flow_9_11_0_0 - flow_9_12_0_0 - flow_9_13_0_0
   - flow_9_14_0_0 - flow_9_15_0_0 - flow_9_16_0_0 - flow_9_17_0_0
   - flow_9_18_0_0 + flow_10_9_0_0 + flow_11_9_0_0 + flow_12_9_0_0
   + flow_13_9_0_0 + flow_16_9_0_0 + flow_17_9_0_0 = 1
 one_parent_10: edge_0_10_0_0 + edge_1_10_0_0 + edge_2_10_0_0
   + edge_4_10_0_0 + edge_6_10_0_0 + edge_7_10_0_0 + edge_8_10_0_0
   + edge_9_10_0_0 + edge_11_10_0_0 + edge_12_10_0_0 + edge_13_10_0_0
   + edge_15_10_0_0 + edge_16_10_0_0 + edge_17_10_0_0 = 1
 consume_one_flow_unit_10: flow_0_10_0_0 + flow_1_10_0_0 + flow_2_10_0_0
   + flow_4_10_0_0 + flow_6_10_0_0 + flow_7_10_0_0 + flow_8_10_0_0
   + flow_9_10_0_0 - flow_10_2_0_0 - flow_10_4_0_0 - flow_10_6_0_0
   - flow_10_7_0_0 - flow_10_8_0_0 - flow_10_9_0_0 - flow_10_11_0_0
   - flow_10_12_0_0 - flow_10_13_0_0 - flow_10_14_0_0 - flow_10_15_0_0
   - flow_10_18_0_0 + flow_11_10_0_0 + flow_12_10_0_0 + flow_13_10_0_0
   + flow_15_10_0_0 + flow_16_10_0_0 + flow_17_10_0_0 = 1
 one_parent_11: edge_1_11_0_0 + edge_4_11_0_0 + edge_7_11_0_0
   + edge_8_11_0_0 + edge_9_11_0_0 + edge_10_11_0_0 + edge_13_11_0_0
   + edge_17_11_0_0 = 1
 consume_one_flow_unit_11: flow_1_11_0_0 + flow_4_11_0_0 + flow_7_11_0_0
   + flow_8_11_0_0 + flow_9_11_0_0 + flow_10_11_0_0 - flow_11_4_0_0
   - flow_11_6_0_0 - flow_11_7_0_0 - flow_11_8_0_0 - flow_11_9_0_0
   - flow_11_10_0_0 - flow_11_13_0_0 - flow_11_15_0_0 - flow_11_16_0_0
   - flow_11_17_0_0 + flow_13_11_0_0 + flow_17_11_0_0 = 1
 one_parent_12: edge_0_12_0_0 + edge_1_12_0_0 + edge_2_12_0_0
   + edge_4_12_0_0 + edge_7_12_0_0 + edge_9_12_0_0 + edge_10_12_0_0
   + edge_13_12_0_0 + edge_15_12_0_0 + edge_16_12_0_0 + edge_17_12_0_0 = 1
 consume_one_flow_unit_12: flow_0_12_0_0 + flow_1_12_0_0 + flow_2_12_0_0
   + flow_4_12_0_0 + flow_7_12_0_0 + flow_9_12_0_0 + flow_10_12_0_0
   - flow_12_1_0_0 - flow_12_2_0_0 - flow_12_4_0_0 - flow_12_5_0_0
   - flow_12_6_0_0 - flow_12_7_0_0 - flow_12_9_0_0 - flow_12_10_0_0
   - flow_12_13_0_0 - flow_12_14_0_0 - flow_12_15_0_0 - flow_12_16_0_0
   - flow_12_17_0_0 - flow_12_18_0_0 + flow_13_12_0_0 + flow_15_12_0_0
   + flow_16_12_0_0 + flow_17_12_0_0 = 1
 one_parent_13: edge_0_13_0_0 + edge_1_13_0_0 + edge_2_13_0_0
   + edge_4_13_0_0 + edge_7_13_0_0 + edge_8_13_0_0 + edge_9_13_0_0
   + edge_10_13_0_0 + edge_11_13_0_0 + edge_12_13_0_0 + edge_14_13_0_0
   + edge_15_13_0_0 + edge_16_13_0_0 + edge_17_13_0_0 = 1
 consume_one_flow_unit_13: flow_0_13_0_0 + flow_1_13_0_0 + flow_2_13_0_0
   + flow_4_13_0_0 + flow_7_13_0_0 + flow_8_13_0_0 + flow_9_13_0_0
   + flow_10_13_0_0 + flow_11_13_0_0 + flow_12_13_0_0 - flow_13_1_0_0
   - flow_13_2_0_0 - flow_13_4_0_0 - flow_13_5_0_0 - flow_13_6_0_0
   - flow_13_7_0_0 - flow_13_8_0_0 - flow_13_9_0_0 - flow_13_10_0_0
   - flow_13_11_0_0 - flow_13_12_0_0 - flow_13_14_0_0 - flow_13_15_0_0
   - flow_13_16_0_0 - flow_13_17_0_0 - flow_13_18_0_0 + flow_14_13_0_0
   + flow_15_13_0_0 + flow_16_13_0_0 + flow_17_13_0_0 = 1
 one_parent_14: edge_1_14_0_0 + edge_2_14_0_0 + edge_4_14_0_0
   + edge_7_14_0_0 + edge_9_14_0_0 + edge_10_14_0_0 + edge_12_14_0_0
   + edge_13_14_0_0 + edge_16_14_0_0 + edge_17_14_0_0 = 1
 consume_one_flow_unit_14: flow_1_14_0_0 + flow_2_14_0_0 + flow_4_14_0_0
   + flow_7_14_0_0 + flow_9_14_0_0 + flow_10_14_0_0 + flow_12_14_0_0
   + flow_13_14_0_0 - flow_14_13_0_0 - flow_14_16_0_0 - flow_14_17_0_0
   + flow_16_14_0_0 + flow_17_14_0_0 = 1
 one_parent_15: edge_1_15_0_0 + edge_2_15_0_0 + edge_4_15_0_0
   + edge_6_15_0_0 + edge_7_15_0_0 + edge_8_15_0_0 + edge_9_15_0_0
   + edge_10_15_0_0 + edge_11_15_0_0 + edge_12_15_0_0 + edge_13_15_0_0
   + edge_16_15_0_0 + edge_17_15_0_0 = 1
 consume_one_flow_unit_15: flow_1_15_0_0 + flow_2_15_0_0 + flow_4_15_0_0
   + flow_6_15_0_0 + flow_7_15_0_0 + flow_8_15_0_0 + flow_9_15_0_0
   + flow_10_15_0_0 + flow_11_15_0_0 + flow_12_15_0_0 + flow_13_15_0_0
   - flow_15_6_0_0 - flow_15_10_0_0 - flow_15_12_0_0 - flow_15_13_0_0
   - flow_15_16_0_0 - flow_15_17_0_0 - flow_15_18_0_0 + flow_16_15_0_0
   + flow_17_15_0_0 = 1
 one_parent_16: edge_0_16_0_0 + edge_1_16_0_0 + edge_2_16_0_0
   + edge_4_16_0_0 + edge_7_16_0_0 + edge_8_16_0_0 + edge_9_16_0_0
   + edge_11_16_0_0 + edge_12_16_0_0 + edge_13_16_0_0 + edge_14_16_0_0
   + edge_15_16_0_0 + edge_17_16_0_0 + edge_18_16_0_0 = 1
 consume_one_flow_unit_16: flow_0_16_0_0 + flow_1_16_0_0 + flow_2_16_0_0
   + flow_4_16_0_0 + flow_7_16_0_0 + flow_8_16_0_0 + flow_9_16_0_0
   + flow_11_16_0_0 + flow_12_16_0_0 + flow_13_16_0_0 + flow_14_16_0_0
   + flow_15_16_0_0 - flow_16_2_0_0 - flow_16_4_0_0 - flow_16_5_0_0
   - flow_16_7_0_0 - flow_16_9_0_0 - flow_16_10_0_0 - flow_16_12_0_0
   - flow_16_13_0_0 - flow_16_14_0_0 - flow_16_15_0_0 - flow_16_17_0_0
   - flow_16_18_0_0 + flow_17_16_0_0 + flow_18_16_0_0 = 1
 one_parent_17: edge_0_17_0_0 + edge_1_17_0_0 + edge_2_17_0_0
   + edge_4_17_0_0 + edge_7_17_0_0 + edge_8_17_0_0 + edge_9_17_0_0
   + edge_11_17_0_0 + edge_12_17_0_0 + edge_13_17_0_0 + edge_14_17_0_0
   + edge_15_17_0_0 + edge_16_17_0_0 + edge_18_17_0_0 = 1
 consume_one_flow_unit_17: flow_0_17_0_0 + flow_1_17_0_0 + flow_2_17_0_0
   + flow_4_17_0_0 + flow_7_17_0_0 + flow_8_17_0_0 + flow_9_17_0_0
   + flow_11_17_0_0 + flow_12_17_0_0 + flow_13_17_0_0 + flow_14_17_0_0
   + flow_15_17_0_0 + flow_16_17_0_0 - flow_17_1_0_0 - flow_17_2_0_0
   - flow_17_4_0_0 - flow_17_5_0_0 - flow_17_6_0_0 - flow_17_7_0_0
   - flow_17_8_0_0 - flow_17_9_0_0 - flow_17_10_0_0 - flow_17_11_0_0
   - flow_17_12_0_0 - flow_17_13_0_0 - flow_17_14_0_0 - flow_17_15_0_0
   - flow_17_16_0_0 - flow_17_18_0_0 + flow_18_17_0_0 = 1
 one_parent_18: edge_2_18_0_0 + edge_4_18_0_0 + edge_7_18_0_0
   + edge_9_18_0_0 + edge_10_18_0_0 + edge_12_18_0_0 + edge_13_18_0_0
   + edge_15_18_0_0 + edge_16_18_0_0 + edge_17_18_0_0 = 1
 consume_one_flow_unit_18: flow_2_18_0_0 + flow_4_18_0_0 + flow_7_18_0_0
   + flow_9_18_0_0 + flow_10_18_0_0 + flow_12_18_0_0 + flow_13_18_0_0
   + flow_15_18_0_0 + flow_16_18_0_0 + flow_17_18_0_0 - flow_18_16_0_0
   - flow_18_17_0_0 = 1
 root_flow: flow_0_1_0_0 + flow_0_2_0_0 + flow_0_4_0_0 + flow_0_5_0_0
   + flow_0_6_0_0 + flow_0_7_0_0 + flow_0_8_0_0 + flow_0_9_0_0
   + flow_0_10_0_0 + flow_0_12_0_0 + flow_0_13_0_0 + flow_0_16_0_0
   + flow_0_17_0_0 = 18
 inactive_no_flow_0_1_0_0: flow_0_1_0_0 - 1000 edge_0_1_0_0 <= 0
 inactive_no_flow_0_2_0_0: flow_0_2_0_0 - 1000 edge_0_2_0_0 <= 0
 inactive_no_flow_0_4_0_0: flow_0_4_0_0 - 1000 edge_0_4_0_0 <= 0
 inactive_no_flow_0_5_0_0: flow_0_5_0_0 - 1000 edge_0_5_0_0 <= 0
 inactive_no_flow_0_6_0_0: flow_0_6_0_0 - 1000 edge_0_6_0_0 <= 0
 inactive_no_flow_0_7_0_0: flow_0_7_0_0 - 1000 edge_0_7_0_0 <= 0
 inactive_no_flow_0_8_0_0: flow_0_8_0_0 - 1000 edge_0_8_0_0 <= 0
 inactive_no_flow_0_9_0_0: flow_0_9_0_0 - 1000 edge_0_9_0_0 <= 0
 inactive_no_flow_0_10_0_0: flow_0_10_0_0 - 1000 edge_0_10_0_0 <= 0
 inactive_no_flow_0_12_0_0: flow_0_12_0_0 - 1000 edge_0_12_0_0 <= 0
 inactive_no_flow_0_13_0_0: flow_0_13_0_0 - 1000 edge_0_13_0_0 <= 0
 inactive_no_flow_0_16_0_0: flow_0_16_0_0 - 1000 edge_0_16_0_0 <= 0
 inactive_no_flow_0_17_0_0: flow_0_17_0_0 - 1000 edge_0_17_0_0 <= 0
 inactive_no_flow_1_2_0_0: flow_1_2_0_0 - 1000 edge_1_2_0_0 <= 0
 inactive_no_flow_1_4_0_0: flow_1_4_0_0 - 1000 edge_1_4_0_0 <= 0
 inactive_no_flow_1_5_0_0: flow_1_5_0_0 - 1000 edge_1_5_0_0 <= 0
 inactive_no_flow_1_6_0_0: flow_1_6_0_0 - 1000 edge_1_6_0_0 <= 0
 inactive_no_flow_1_7_0_0: flow_1_7_0_0 - 1000 edge_1_7_0_0 <= 0
 inactive_no_flow_1_8_0_0: flow_1_8_0_0 - 1000 edge_1_8_0_0 <= 0
 inactive_no_flow_1_9_0_0: flow_1_9_0_0 - 1000 edge_1_9_0_0 <= 0
 inactive_no_flow_1_10_0_0: flow_1_10_0_0 - 1000 edge_1_10_0_0 <= 0
 inactive_no_flow_1_11_0_0: flow_1_11_0_0 - 1000 edge_1_11_0_0 <= 0
 inactive_no_flow_1_12_0_0: flow_1_12_0_0 - 1000 edge_1_12_0_0 <= 0
 inactive_no_flow_1_13_0_0: flow_1_13_0_0 - 1000 edge_1_13_0_0 <= 0
 inactive_no_flow_1_14_0_0: flow_1_14_0_0 - 1000 edge_1_14_0_0 <= 0
 inactive_no_flow_1_15_0_0: flow_1_15_0_0 - 1000 edge_1_15_0_0 <= 0
 inactive_no_flow_1_16_0_0: flow_1_16_0_0 - 1000 edge_1_16_0_0 <= 0
 inactive_no_flow_1_17_0_0: flow_1_17_0_0 - 1000 edge_1_17_0_0 <= 0
 inactive_no_flow_2_1_0_0: flow_2_1_0_0 - 1000 edge_2_1_0_0 <= 0
 inactive_no_flow_2_4_0_0: flow_2_4_0_0 - 1000 edge_2_4_0_0 <= 0
 inactive_no_flow_2_5_0_0: flow_2_5_0_0 - 1000 edge_2_5_0_0 <= 0
 inactive_no_flow_2_6_0_0: flow_2_6_0_0 - 1000 edge_2_6_0_0 <= 0
 inactive_no_flow_2_7_0_0: flow_2_7_0_0 - 1000 edge_2_7_0_0 <= 0
 inactive_no_flow_2_9_0_0: flow_2_9_0_0 - 1000 edge_2_9_0_0 <= 0
 inactive_no_flow_2_10_0_0: flow_2_10_0_0 - 1000 edge_2_10_0_0 <= 0
 inactive_no_flow_2_12_0_0: flow_2_12_0_0 - 1000 edge_2_12_0_0 <= 0
 inactive_no_flow_2_13_0_0: flow_2_13_0_0 - 1000 edge_2_13_0_0 <= 0
 inactive_no_flow_2_14_0_0: flow_2_14_0_0 - 1000 edge_2_14_0_0 <= 0
 inactive_no_flow_2_15_0_0: flow_2_15_0_0 - 1000 edge_2_15_0_0 <= 0
 inactive_no_flow_2_16_0_0: flow_2_16_0_0 - 1000 edge_2_16_0_0 <= 0
 inactive_no_flow_2_17_0_0: flow_2_17_0_0 - 1000 edge_2_17_0_0 <= 0
 inactive_no_flow_2_18_0_0: flow_2_18_0_0 - 1000 edge_2_18_0_0 <= 0
 inactive_no_flow_4_1_0_0: flow_4_1_0_0 - 1000 edge_4_1_0_0 <= 0
 inactive_no_flow_4_2_0_0: flow_4_2_0_0 - 1000 edge_4_2_0_0 <= 0
 inactive_no_flow_4_5_0_0: flow_4_5_0_0 - 1000 edge_4_5_0_0 <= 0
 inactive_no_flow_4_6_0_0: flow_4_6_0_0 - 1000 edge_4_6_0_0 <= 0
 inactive_no_flow_4_7_0_0: flow_4_7_0_0 - 1000 edge_4_7_0_0 <= 0
 inactive_no_flow_4_8_0_0: flow_4_8_0_0 - 1000 edge_4_8_0_0 <= 0
 inactive_no_flow_4_9_0_0: flow_4_9_0_0 - 1000 edge_4_9_0_0 <= 0
 inactive_no_flow_4_10_0_0: flow_4_10_0_0 - 1000 edge_4_10_0_0 <= 0
 inactive_no_flow_4_11_0_0: flow_4_11_0_0 - 1000 edge_4_11_0_0 <= 0
 inactive_no_flow_4_12_0_0: flow_4_12_0_0 - 1000 edge_4_12_0_0 <= 0
 inactive_no_flow_4_13_0_0: flow_4_13_0_0 - 1000 edge_4_13_0_0 <= 0
 inactive_no_flow_4_14_0_0: flow_4_14_0_0 - 1000 edge_4_14_0_0 <= 0
 inactive_no_flow_4_15_0_0: flow_4_15_0_0 - 1000 edge_4_15_0_0 <= 0
 inactive_no_flow_4_16_0_0: flow_4_16_0_0 - 1000 edge_4_16_0_0 <= 0
 inactive_no_flow_4_17_0_0: flow_4_17_0_0 - 1000 edge_4_17_0_0 <= 0
 inactive_no_flow_4_18_0_0: flow_4_18_0_0 - 1000 edge_4_18_0_0 <= 0
 inactive_no_flow_5_4_0_0: flow_5_4_0_0 - 1000 edge_5_4_0_0 <= 0
 inactive_no_flow_5_7_0_0: flow_5_7_0_0 - 1000 edge_5_7_0_0 <= 0
 inactive_no_flow_5_9_0_0: flow_5_9_0_0 - 1000 edge_5_9_0_0 <= 0
 inactive_no_flow_6_2_0_0: flow_6_2_0_0 - 1000 edge_6_2_0_0 <= 0
 inactive_no_flow_6_4_0_0: flow_6_4_0_0 - 1000 edge_6_4_0_0 <= 0
 inactive_no_flow_6_7_0_0: flow_6_7_0_0 - 1000 edge_6_7_0_0 <= 0
 inactive_no_flow_6_8_0_0: flow_6_8_0_0 - 1000 edge_6_8_0_0 <= 0
 inactive_no_flow_6_9_0_0: flow_6_9_0_0 - 1000 edge_6_9_0_0 <= 0
 inactive_no_flow_6_10_0_0: flow_6_10_0_0 - 1000 edge_6_10_0_0 <= 0
 inactive_no_flow_6_15_0_0: flow_6_15_0_0 - 1000 edge_6_15_0_0 <= 0
 inactive_no_flow_7_1_0_0: flow_7_1_0_0 - 1000 edge_7_1_0_0 <= 0
 inactive_no_flow_7_2_0_0: flow_7_2_0_0 - 1000 edge_7_2_0_0 <= 0
 inactive_no_flow_7_4_0_0: flow_7_4_0_0 - 1000 edge_7_4_0_0 <= 0
 inactive_no_flow_7_5_0_0: flow_7_5_0_0 - 1000 edge_7_5_0_0 <= 0
 inactive_no_flow_7_6_0_0: flow_7_6_0_0 - 1000 edge_7_6_0_0 <= 0
 inactive_no_flow_7_8_0_0: flow_7_8_0_0 - 1000 edge_7_8_0_0 <= 0
 inactive_no_flow_7_9_0_0: flow_7_9_0_0 - 1000 edge_7_9_0_0 <= 0
 inactive_no_flow_7_10_0_0: flow_7_10_0_0 - 1000 edge_7_10_0_0 <= 0
 inactive_no_flow_7_11_0_0: flow_7_11_0_0 - 1000 edge_7_11_0_0 <= 0
 inactive_no_flow_7_12_0_0: flow_7_12_0_0 - 1000 edge_7_12_0_0 <= 0
 inactive_no_flow_7_13_0_0: flow_7_13_0_0 - 1000 edge_7_13_0_0 <= 0
 inactive_no_flow_7_14_0_0: flow_7_14_0_0 - 1000 edge_7_14_0_0 <= 0
 inactive_no_flow_7_15_0_0: flow_7_15_0_0 - 1000 edge_7_15_0_0 <= 0
 inactive_no_flow_7_16_0_0: flow_7_16_0_0 - 1000 edge_7_16_0_0 <= 0
 inactive_no_flow_7_17_0_0: flow_7_17_0_0 - 1000 edge_7_17_0_0 <= 0
 inactive_no_flow_7_18_0_0: flow_7_18_0_0 - 1000 edge_7_18_0_0 <= 0
 inactive_no_flow_8_1_0_0: flow_8_1_0_0 - 1000 edge_8_1_0_0 <= 0
 inactive_no_flow_8_4_0_0: flow_8_4_0_0 - 1000 edge_8_4_0_0 <= 0
 inactive_no_flow_8_6_0_0: flow_8_6_0_0 - 1000 edge_8_6_0_0 <= 0
 inactive_no_flow_8_7_0_0: flow_8_7_0_0 - 1000 edge_8_7_0_0 <= 0
 inactive_no_flow_8_9_0_0: flow_8_9_0_0 - 1000 edge_8_9_0_0 <= 0
 inactive_no_flow_8_10_0_0: flow_8_10_0_0 - 1000 edge_8_10_0_0 <= 0
 inactive_no_flow_8_11_0_0: flow_8_11_0_0 - 1000 edge_8_11_0_0 <= 0
 inactive_no_flow_8_13_0_0: flow_8_13_0_0 - 1000 edge_8_13_0_0 <= 0
 inactive_no_flow_8_15_0_0: flow_8_15_0_0 - 1000 edge_8_15_0_0 <= 0
 inactive_no_flow_8_16_0_0: flow_8_16_0_0 - 1000 edge_8_16_0_0 <= 0
 inactive_no_flow_8_17_0_0: flow_8_17_0_0 - 1000 edge_8_17_0_0 <= 0
 inactive_no_flow_9_1_0_0: flow_9_1_0_0 - 1000 edge_9_1_0_0 <= 0
 inactive_no_flow_9_2_0_0: flow_9_2_0_0 - 1000 edge_9_2_0_0 <= 0
 inactive_no_flow_9_4_0_0: flow_9_4_0_0 - 1000 edge_9_4_0_0 <= 0
 inactive_no_flow_9_5_0_0: flow_9_5_0_0 - 1000 edge_9_5_0_0 <= 0
 inactive_no_flow_9_6_0_0: flow_9_6_0_0 - 1000 edge_9_6_0_0 <= 0
 inactive_no_flow_9_7_0_0: flow_9_7_0_0 - 1000 edge_9_7_0_0 <= 0
 inactive_no_flow_9_8_0_0: flow_9_8_0_0 - 1000 edge_9_8_0_0 <= 0
 inactive_no_flow_9_10_0_0: flow_9_10_0_0 - 1000 edge_9_10_0_0 <= 0
 inactive_no_flow_9_11_0_0: flow_9_11_0_0 - 1000 edge_9_11_0_0 <= 0
 inactive_no_flow_9_12_0_0: flow_9_12_0_0 - 1000 edge_9_12_0_0 <= 0
 inactive_no_flow_9_13_0_0: flow_9_13_0_0 - 1000 edge_9_13_0_0 <= 0
 inactive_no_flow_9_14_0_0: flow_9_14_0_0 - 1000 edge_9_14_0_0 <= 0
 inactive_no_flow_9_15_0_0: flow_9_15_0_0 - 1000 edge_9_15_0_0 <= 0
 inactive_no_flow_9_16_0_0: flow_9_16_0_0 - 1000 edge_9_16_0_0 <= 0
 inactive_no_flow_9_17_0_0: flow_9_17_0_0 - 1000 edge_9_17_0_0 <= 0
 inactive_no_flow_9_18_0_0: flow_9_18_0_0 - 1000 edge_9_18_0_0 <= 0
 inactive_no_flow_10_2_0_0: flow_10_2_0_0 - 1000 edge_10_2_0_0 <= 0
 inactive_no_flow_10_4_0_0: flow_10_4_0_0 - 1000 edge_10_4_0_0 <= 0
 inactive_no_flow_10_6_0_0: flow_10_6_0_0 - 1000 edge_10_6_0_0 <= 0
 inactive_no_flow_10_7_0_0: flow_10_7_0_0 - 1000 edge_10_7_0_0 <= 0
 inactive_no_flow_10_8_0_0: flow_10_8_0_0 - 1000 edge_10_8_0_0 <= 0
 inactive_no_flow_10_9_0_0: flow_10_9_0_0 - 1000 edge_10_9_0_0 <= 0
 inactive_no_flow_10_11_0_0: flow_10_11_0_0 - 1000 edge_10_11_0_0 <= 0
 inactive_no_flow_10_12_0_0: flow_10_12_0_0 - 1000 edge_10_12_0_0 <= 0
 inactive_no_flow_10_13_0_0: flow_10_13_0_0 - 1000 edge_10_13_0_0 <= 0
 inactive_no_flow_10_14_0_0: flow_10_14_0_0 - 1000 edge_10_14_0_0 <= 0
 inactive_no_flow_10_15_0_0: flow_10_15_0_0 - 1000 edge_10_15_0_0 <= 0
 inactive_no_flow_10_18_0_0: flow_10_18_0_0 - 1000 edge_10_18_0_0 <= 0
 inactive_no_flow_11_4_0_0: flow_11_4_0_0 - 1000 edge_11_4_0_0 <= 0
 inactive_no_flow_11_6_0_0: flow_11_6_0_0 - 1000 edge_11_6_0_0 <= 0
 inactive_no_flow_11_7_0_0: flow_11_7_0_0 - 1000 edge_11_7_0_0 <= 0
 inactive_no_flow_11_8_0_0: flow_11_8_0_0 - 1000 edge_11_8_0_0 <= 0
 inactive_no_flow_11_9_0_0: flow_11_9_0_0 - 1000 edge_11_9_0_0 <= 0
 inactive_no_flow_11_10_0_0: flow_11_10_0_0 - 1000 edge_11_10_0_0 <= 0
 inactive_no_flow_11_13_0_0: flow_11_13_0_0 - 1000 edge_11_13_0_0 <= 0
 inactive_no_flow_11_15_0_0: flow_11_15_0_0 - 1000 edge_11_15_0_0 <= 0
 inactive_no_flow_11_16_0_0: flow_11_16_0_0 - 1000 edge_11_16_0_0 <= 0
 inactive_no_flow_11_17_0_0: flow_11_17_0_0 - 1000 edge_11_17_0_0 <= 0
 inactive_no_flow_12_1_0_0: flow_12_1_0_0 - 1000 edge_12_1_0_0 <= 0
 inactive_no_flow_12_2_0_0: flow_12_2_0_0 - 1000 edge_12_2_0_0 <= 0
 inactive_no_flow_12_4_0_0: flow_12_4_0_0 - 1000 edge_12_4_0_0 <= 0
 inactive_no_flow_12_5_0_0: flow_12_5_0_0 - 1000 edge_12_5_0_0 <= 0
 inactive_no_flow_12_6_0_0: flow_12_6_0_0 - 1000 edge_12_6_0_0 <= 0
 inactive_no_flow_12_7_0_0: flow_12_7_0_0 - 1000 edge_12_7_0_0 <= 0
 inactive_no_flow_12_9_0_0: flow_12_9_0_0 - 1000 edge_12_9_0_0 <= 0
 inactive_no_flow_12_10_0_0: flow_12_10_0_0 - 1000 edge_12_10_0_0 <= 0
 inactive_no_flow_12_13_0_0: flow_12_13_0_0 - 1000 edge_12_13_0_0 <= 0
 inactive_no_flow_12_14_0_0: flow_12_14_0_0 - 1000 edge_12_14_0_0 <= 0
 inactive_no_flow_12_15_0_0: flow_12_15_0_0 - 1000 edge_12_15_0_0 <= 0
 inactive_no_flow_12_16_0_0: flow_12_16_0_0 - 1000 edge_12_16_0_0 <= 0
 inactive_no_flow_12_17_0_0: flow_12_17_0_0 - 1000 edge_12_17_0_0 <= 0
 inactive_no_flow_12_18_0_0: flow_12_18_0_0 - 1000 edge_12_18_0_0 <= 0
 inactive_no_flow_13_1_0_0: flow_13_1_0_0 - 1000 edge_13_1_0_0 <= 0
 inactive_no_flow_13_2_0_0: flow_13_2_0_0 - 1000 edge_13_2_0_0 <= 0
 inactive_no_flow_13_4_0_0: flow_13_4_0_0 - 1000 edge_13_4_0_0 <= 0
 inactive_no_flow_13_5_0_0: flow_13_5_0_0 - 1000 edge_13_5_0_0 <= 0
 inactive_no_flow_13_6_0_0: flow_13_6_0_0 - 1000 edge_13_6_0_0 <= 0
 inactive_no_flow_13_7_0_0: flow_13_7_0_0 - 1000 edge_13_7_0_0 <= 0
 inactive_no_flow_13_8_0_0: flow_13_8_0_0 - 1000 edge_13_8_0_0 <= 0
 inactive_no_flow_13_9_0_0: flow_13_9_0_0 - 1000 edge_13_9_0_0 <= 0
 inactive_no_flow_13_10_0_0: flow_13_10_0_0 - 1000 edge_13_10_0_0 <= 0
 inactive_no_flow_13_11_0_0: flow_13_11_0_0 - 1000 edge_13_11_0_0 <= 0
 inactive_no_flow_13_12_0_0: flow_13_12_0_0 - 1000 edge_13_12_0_0 <= 0
 inactive_no_flow_13_14_0_0: flow_13_14_0_0 - 1000 edge_13_14_0_0 <= 0
 inactive_no_flow_13_15_0_0: flow_13_15_0_0 - 1000 edge_13_15_0_0 <= 0
 inactive_no_flow_13_16_0_0: flow_13_16_0_0 - 1000 edge_13_16_0_0 <= 0
 inactive_no_flow_13_17_0_0: flow_13_17_0_0 - 1000 edge_13_17_0_0 <= 0
 inactive_no_flow_13_18_0_0: flow_13_18_0_0 - 1000 edge_13_18_0_0 <= 0
 inactive_no_flow_14_13_0_0: flow_14_13_0_0 - 1000 edge_14_13_0_0 <= 0
 inactive_no_flow_14_16_0_0: flow_14_16_0_0 - 1000 edge_14_16_0_0 <= 0
 inactive_no_flow_14_17_0_0: flow_14_17_0_0 - 1000 edge_14_17_0_0 <= 0
 inactive_no_flow_15_6_0_0: flow_15_6_0_0 - 1000 edge_15_6_0_0 <= 0
 inactive_no_flow_15_10_0_0: flow_15_10_0_0 - 1000 edge_15_10_0_0 <= 0
 inactive_no_flow_15_12_0_0: flow_15_12_0_0 - 1000 edge_15_12_0_0 <= 0
 inactive_no_flow_15_13_0_0: flow_15_13_0_0 - 1000 edge_15_13_0_0 <= 0
 inactive_no_flow_15_16_0_0: flow_15_16_0_0 - 1000 edge_15_16_0_0 <= 0
 inactive_no_flow_15_17_0_0: flow_15_17_0_0 - 1000 edge_15_17_0_0 <= 0
 inactive_no_flow_15_18_0_0: flow_15_18_0_0 - 1000 edge_15_18_0_0 <= 0
 inactive_no_flow_16_2_0_0: flow_16_2_0_0 - 1000 edge_16_2_0_0 <= 0
 inactive_no_flow_16_4_0_0: flow_16_4_0_0 - 1000 edge_16_4_0_0 <= 0
 inactive_no_flow_16_5_0_0: flow_16_5_0_0 - 1000 edge_16_5_0_0 <= 0
 inactive_no_flow_16_7_0_0: flow_16_7_0_0 - 1000 edge_16_7_0_0 <= 0
 inactive_no_flow_16_9_0_0: flow_16_9_0_0 - 1000 edge_16_9_0_0 <= 0
 inactive_no_flow_16_10_0_0: flow_16_10_0_0 - 1000 edge_16_10_0_0 <= 0
 inactive_no_flow_16_12_0_0: flow_16_12_0_0 - 1000 edge_16_12_0_0 <= 0
 inactive_no_flow_16_13_0_0: flow_16_13_0_0 - 1000 edge_16_13_0_0 <= 0
 inactive_no_flow_16_14_0_0: flow_16_14_0_0 - 1000 edge_16_14_0_0 <= 0
 inactive_no_flow_16_15_0_0: flow_16_15_0_0 - 1000 edge_16_15_0_0 <= 0
 inactive_no_flow_16_17_0_0: flow_16_17_0_0 - 1000 edge_16_17_0_0 <= 0
 inactive_no_flow_16_18_0_0: flow_16_18_0_0 - 1000 edge_16_18_0_0 <= 0
 inactive_no_flow_17_1_0_0: flow_17_1_0_0 - 1000 edge_17_1_0_0 <= 0
 inactive_no_flow_17_2_0_0: flow_17_2_0_0 - 1000 edge_17_2_0_0 <= 0
 inactive_no_flow_17_4_0_0: flow_17_4_0_0 - 1000 edge_17_4_0_0 <= 0
 inactive_no_flow_17_5_0_0: flow_17_5_0_0 - 1000 edge_17_5_0_0 <= 0
 inactive_no_flow_17_6_0_0: flow_17_6_0_0 - 1000 edge_17_6_0_0 <= 0
 inactive_no_flow_17_7_0_0: flow_17_7_0_0 - 1000 edge_17_7_0_0 <= 0
 inactive_no_flow_17_8_0_0: flow_17_8_0_0 - 1000 edge_17_8_0_0 <= 0
 inactive_no_flow_17_9_0_0: flow_17_9_0_0 - 1000 edge_17_9_0_0 <= 0
 inactive_no_flow_17_10_0_0: flow_17_10_0_0 - 1000 edge_17_10_0_0 <= 0
 inactive_no_flow_17_11_0_0: flow_17_11_0_0 - 1000 edge_17_11_0_0 <= 0
 inactive_no_flow_17_12_0_0: flow_17_12_0_0 - 1000 edge_17_12_0_0 <= 0
 inactive_no_flow_17_13_0_0: flow_17_13_0_0 - 1000 edge_17_13_0_0 <= 0
 inactive_no_flow_17_14_0_0: flow_17_14_0_0 - 1000 edge_17_14_0_0 <= 0
 inactive_no_flow_17_15_0_0: flow_17_15_0_0 - 1000 edge_17_15_0_0 <= 0
 inactive_no_flow_17_16_0_0: flow_17_16_0_0 - 1000 edge_17_16_0_0 <= 0
 inactive_no_flow_17_18_0_0: flow_17_18_0_0 - 1000 edge_17_18_0_0 <= 0
 inactive_no_flow_18_16_0_0: flow_18_16_0_0 - 1000 edge_18_16_0_0 <= 0
 inactive_no_flow_18_17_0_0: flow_18_17_0_0 - 1000 edge_18_17_0_0 <= 0
Bounds
Binaries
 edge_0_1_0_0 edge_0_2_0_0 edge_0_4_0_0 edge_0_5_0_0 edge_0_6_0_0
 edge_0_7_0_0 edge_0_8_0_0 edge_0_9_0_0 edge_0_10_0_0 edge_0_12_0_0
 edge_0_13_0_0 edge_0_16_0_0 edge_0_17_0_0 edge_1_2_0_0 edge_1_4_0_0
 edge_1_5_0_0 edge_1_6_0_0 edge_1_7_0_0 edge_1_8_0_0 edge_1_9_0_0
 edge_1_10_0_0 edge_1_11_0_0 edge_1_12_0_0 edge_1_13_0_0 edge_1_14_0_0
 edge_1_15_0_0 edge_1_16_0_0 edge_1_17_0_0 edge_2_1_0_0 edge_2_4_0_0
 edge_2_5_0_0 edge_2_6_0_0 edge_2_7_0_0 edge_2_9_0_0 edge_2_10_0_0
 edge_2_12_0_0 edge_2_13_0_0 edge_2_14_0_0 edge_2_15_0_0 edge_2_16_0_0
 edge_2_17_0_0 edge_2_18_0_0 edge_4_1_0_0 edge_4_2_0_0 edge_4_5_0_0
 edge_4_6_0_0 edge_4_7_0_0 edge_4_8_0_0 edge_4_9_0_0 edge_4_10_0_0
 edge_4_11_0_0 edge_4_12_0_0 edge_4_13_0_0 edge_4_14_0_0 edge_4_15_0_0
 edge_4_16_0_0 edge_4_17_0_0 edge_4_18_0_0 edge_5_4_0_0 edge_5_7_0_0
 edge_5_9_0_0 edge_6_2_0_0 edge_6_4_0_0 edge_6_7_0_0 edge_6_8_0_0
 edge_6_9_0_0 edge_6_10_0_0 edge_6_15_0_0 edge_7_1_0_0 edge_7_2_0_0
 edge_7_4_0_0 edge_7_5_0_0 edge_7_6_0_0 edge_7_8_0_0 edge_7_9_0_0
 edge_7_10_0_0 edge_7_11_0_0 edge_7_12_0_0 edge_7_13_0_0 edge_7_14_0_0
 edge_7_15_0_0 edge_7_16_0_0 edge_7_17_0_0 edge_7_18_0_0 edge_8_1_0_0
 edge_8_4_0_0 edge_8_6_0_0 edge_8_7_0_0 edge_8_9_0_0 edge_8_10_0_0
 edge_8_11_0_0 edge_8_13_0_0 edge_8_15_0_0 edge_8_16_0_0 edge_8_17_0_0
 edge_9_1_0_0 edge_9_2_0_0 edge_9_4_0_0 edge_9_5_0_0 edge_9_6_0_0
 edge_9_7_0_0 edge_9_8_0_0 edge_9_10_0_0 edge_9_11_0_0 edge_9_12_0_0
 edge_9_13_0_0 edge_9_14_0_0 edge_9_15_0_0 edge_9_16_0_0 edge_9_17_0_0
 edge_9_18_0_0 edge_10_2_0_0 edge_10_4_0_0 edge_10_6_0_0 edge_10_7_0_0
 edge_10_8_0_0 edge_10_9_0_0 edge_10_11_0_0 edge_10_12_0_0 edge_10_13_0_0
 edge_10_14_0_0 edge_10_15_0_0 edge_10_18_0_0 edge_11_4_0_0 edge_11_6_0_0
 edge_11_7_0_0 edge_11_8_0_0 edge_11_9_0_0 edge_11_10_0_0 edge_11_13_0_0
 edge_11_15_0_0 edge_11_16_0_0 edge_11_17_0_0 edge_12_1_0_0 edge_12_2_0_0
 edge_12_4_0_0 edge_12_5_0_0 edge_12_6_0_0 edge_12_7_0_0 edge_12_9_0_0
 edge_12_10_0_0 edge_12_13_0_0 edge_12_14_0_0 edge_12_15_0_0 edge_12_16_0_0
 edge_12_17_0_0 edge_12_18_0_0 edge_13_1_0_0 edge_13_2_0_0 edge_13_4_0_0
 edge_13_5_0_0 edge_13_6_0_0 edge_13_7_0_0 edge_13_8_0_0 edge_13_9_0_0
 edge_13_10_0_0 edge_13_11_0_0 edge_13_12_0_0 edge_13_14_0_0 edge_13_15_0_0
 edge_13_16_0_0 edge_13_17_0_0 edge_13_18_0_0 edge_14_13_0_0 edge_14_16_0_0
 edge_14_17_0_0 edge_15_6_0_0 edge_15_10_0_0 edge_15_12_0_0 edge_15_13_0_0
 edge_15_16_0_0 edge_15_17_0_0 edge_15_18_0_0 edge_16_2_0_0 edge_16_4_0_0
 edge_16_5_0_0 edge_16_7_0_0 edge_16_9_0_0 edge_16_10_0_0 edge_16_12_0_0
 edge_16_13_0_0 edge_16_14_0_0 edge_16_15_0_0 edge_16_17_0_0 edge_16_18_0_0
 edge_17_1_0_0 edge_17_2_0_0 edge_17_4_0_0 edge_17_5_0_0 edge_17_6_0_0
 edge_17_7_0_0 edge_17_8_0_0 edge_17_9_0_0 edge_17_10_0_0 edge_17_11_0_0
 edge_17_12_0_0 edge_17_13_0_0 edge_17_14_0_0 edge_17_15_0_0 edge_17_16_0_0
 edge_17_18_0_0 edge_18_16_0_0 edge_18_17_0_0
End
